Route #1: 0 5 47 36 21 41 29 53 4 0
Route #2: 0 30 49 35 33 48 38 12 0
Route #3: 0 20 44 39 13 34 14 0
Route #4: 0 19 26 16 23 2 0
Route #5: 0 8 15 51 25 7 37 11 42 54 0
Route #6: 0 1 45 24 52 43 0
Route #7: 0 10 17 31 55 9 27 18 28 0
Route #8: 0 40 3 50 46 22 0
Route #9: 0 6 32 56 0
Cost 1667:
